\ENCODING=ISO-8859-1
\Problem name: ilog.cplex

Minimize
 obj: 4.19 x0 + 4.86 x1 + 3.09 x2 + 4.5 x3 + 3.42 x4 + 3.58 x5 + 4.7 x6
      + 4.26 x7 + 4.87 x8 + 3.98 x9 + 3.61 x10 + 4.85 x11 + 4.82 x12 + 3.44 x13
      + 4.91 x14 + 3.27 x15 + 3.58 x16 + 4.41 x17 + 85.66 x18 + 2.29 x19
      + 2.18 x20 + 0.02 x21 + 2.24 x22 + 3.07 x23 + 2.66 x24 + 2.42 x25
      + 3.98 x26 + 91.93 x27 + 2.02 x28 + 1.59 x29 + 1.2 x30 + 3.59 x31
      + 0.74 x32 + 0.24 x33 + 1.57 x34 + 3.86 x35 + 1.48 x36 + 1.19 x37
      + 85.17 x38 + 2.61 x39 + 2.15 x40 + 1.68 x41 + 2.33 x42 + 1.65 x43
      + 1.44 x44 + 2.03 x45 + 1.8 x46 + 0.7 x47 + 2.93 x48 + 88.33 x49
      + 3.95 x50 + 1.37 x51 + 1.33 x52 + 2.99 x53 + 3.25 x54 + 2.1 x55
      + 3.46 x56 + 1.17 x57 + 1.43 x58 + 1.08 x59 + 2.78 x60 + 56.28 x61
      + 2.94 x62 + 2.57 x63 + 2.82 x64 + 0.79 x65 + 0.56 x66 + 3.86 x67
      + 2.27 x68 + 3.12 x69 + 0.6 x70 + 0.37 x71 + 2.85 x72 + 96.72 x73
      + 2.47 x74 + 1.8 x75 + 1.97 x76 + 2.4 x77 + 3.85 x78 + 1.55 x79
      + 0.84 x80 + 2.03 x81 + 2.01 x82 + 68.37 x83 + 3.77 x84 + 2.38 x85
      + 3.34 x86 + 1.07 x87 + 0.89 x88 + 0.64 x89 + 2.98 x90 + 3.08 x91
      + 96.15 x92 + 3.92 x93 + 3.11 x94 + 0.29 x95 + 1.82 x96 + 0.08 x97
      + 3.05 x98 + 3.38 x99 + 3.19 x100 + 3.55 x101 + 1.25 x102 + 57.16 x103
      + 2.52 x104 + 3.76 x105 + 1.24 x106 + 2.97 x107 + 2.19 x108 + 3.46 x109
      + 0.63 x110 + 1.79 x111 + 1.93 x112 + 2.77 x113 + 63.22 x114 + 2.29 x115
      + 0.89 x116 + 0.3 x117 + 2.35 x118 + 2.63 x119 + 1.89 x120 + 3.6 x121
      + 3.64 x122 + 0.81 x123 + 68.26 x124 + 3.09 x125 + 2.66 x126 + 3.93 x127
      + 2.24 x128 + 0.69 x129 + 3.32 x130 + 2.87 x131 + 3.85 x132 + 2.91 x133
      + 55.43 x134 + 2.34 x135 + 1.8 x136 + 1.21 x137 + 3.99 x138 + 3.79 x139
      + 3.36 x140 + 3.24 x141 + 0.78 x142 + 0.93 x143 + 1.02 x144 + 1.97 x145
      + 52.34 x146 + 3.81 x147 + 3.31 x148 + 3.23 x149 + 2.84 x150 + 3.81 x151
      + 1.58 x152 + 2.91 x153 + 3.42 x154 + 3.97 x155 + 92.76 x156 + 3.96 x157
      + 2.92 x158 + 0.45 x159 + 2.45 x160 + 0.28 x161 + 2.42 x162 + 2.97 x163
      + 1.62 x164 + 69.8 x165 + 2.84 x166 + 1.33 x167 + 0.68 x168 + 0.55 x169
      + 0.56 x170 + 3.09 x171 + 0.95 x172 + 2.92 x173 + 52.28 x174 + 3.72 x175
      + 1.02 x176 + 3.67 x177 + 1.37 x178 + 3.86 x179 + 0.04 x180 + 0.62 x181
      + 1.56 x182 + 2.06 x183 + 78.37 x184 + 2.51 x185 + 3.39 x186 + 3.08 x187
      + 0.22 x188 + 3.26 x189 + 1.89 x190 + 1.54 x191 + 2.69 x192 + 2.03 x193
      + 3.59 x194 + 70.52 x195 + 2.48 x196 + 0.53 x197 + 0.64 x198 + 0.53 x199
      + 0.69 x200 + 2.83 x201 + 1.62 x202 + 1.75 x203 + y0 + 1.31 y1 + 1.48 y2
      + 1.68 y3 + 2.77 y4 + 2.88 y5 + 2.94 y6 + 3.09 y7 + 3.29 y8 + 3.73 y9
      + 61.76 y10 + 0.31 y11 + 0.62 y12 + 1.53 y13 + 1.73 y14 + 1.79 y15
      + 2.31 y16 + 2.64 y17 + 3.07 y18 + 82.06 y19 + 0.01 y20 + 0.44 y21
      + 1.59 y22 + 1.87 y23 + 2.28 y24 + 2.71 y25 + 3.31 y26 + 3.48 y27
      + 3.94 y28 + 63.42 y29 + 0.11 y30 + 0.21 y31 + 0.29 y32 + 0.8 y33
      + 1.26 y34 + 2.19 y35 + 2.6 y36 + 3.23 y37 + 3.34 y38 + 3.76 y39
      + 78.27 y40 + 1.1 y41 + 1.18 y42 + 1.59 y43 + 1.65 y44 + 2.23 y45
      + 2.8 y46 + 3.55 y47 + 3.66 y48 + 3.92 y49 + 62 y50 + 0.1 y51 + 1.24 y52
      + 1.46 y53 + 1.74 y54 + 2.14 y55 + 2.43 y56 + 2.88 y57 + 3.33 y58
      + 3.94 y59 + 3.95 y60 + 77 y61 + 0.3 y62 + 0.31 y63 + 1.65 y64 + 1.72 y65
      + 2.58 y66 + 3.13 y67 + 3.28 y68 + 3.54 y69 + 77.29 y70 + 0.78 y71
      + 1.04 y72 + 1.2 y73 + 1.36 y74 + 1.41 y75 + 1.93 y76 + 2.25 y77
      + 2.72 y78 + 3.07 y79 + 3.77 y80 + 71.36 y81 + 0.16 y82 + 0.9 y83
      + 0.98 y84 + 1.4 y85 + 2.16 y86 + 2.5 y87 + 3.33 y88 + 3.34 y89
      + 3.56 y90 + 73.72 y91 + 0.08 y92 + 0.6 y93 + 1.25 y94 + 1.91 y95
      + 2.48 y96 + 2.98 y97 + 3.04 y98 + 3.42 y99 + 75.33 y100 + 0.77 y101
      + 0.86 y102 + 1.01 y103 + 1.12 y104 + 2.33 y105 + 2.34 y106 + 2.44 y107
      + 2.68 y108 + 2.69 y109 + 2.71 y110 + 3.55 y111 + 95.29 y112 + 1.06 y113
      + 1.19 y114 + 2.41 y115 + 2.66 y116 + 2.78 y117 + 2.83 y118 + 3.28 y119
      + 3.39 y120 + 64.49 y121 + 0.18 y122 + 0.52 y123 + 1.06 y124 + 1.25 y125
      + 1.79 y126 + 2.58 y127 + 2.78 y128 + 2.97 y129 + 3.34 y130 + 3.9 y131
      + 90.5 y132 + 0.47 y133 + 0.76 y134 + 2.03 y135 + 2.38 y136 + 2.44 y137
      + 3.41 y138 + 3.65 y139 + 3.71 y140 + 93.81 y141 + 0.14 y142 + 0.53 y143
      + 0.78 y144 + 2.55 y145 + 2.93 y146 + 3.13 y147 + 3.25 y148 + 3.51 y149
      + 3.61 y150 + 3.93 y151 + 75.98 y152 + 0.43 y153 + 0.64 y154 + 1.12 y155
      + 1.21 y156 + 1.92 y157 + 2.57 y158 + 3.26 y159 + 3.91 y160 + 58.42 y161
      + 1.19 y162 + 1.37 y163 + 2.05 y164 + 2.69 y165 + 2.87 y166 + 3.16 y167
      + 3.59 y168 + 3.75 y169 + 3.81 y170 + 68.87 y171 + 0.03 y172 + 0.23 y173
      + 1.05 y174 + 1.11 y175 + 1.22 y176 + 1.95 y177 + 2.14 y178 + 2.85 y179
      + 3.57 y180 + 3.89 y181 + 3.97 y182 + 94.21 y183
Subject To
 N20:      x18 + x19 + x20 + x21 + x22 + x23 + x24 + x25 + x26  = 14
 N21:      x27 + x28 + x29 + x30 + x31 + x32 + x33 + x34 + x35 + x36 + x37
            = 25
 N22:      x38 + x39 + x40 + x41 + x42 + x43 + x44 + x45 + x46 + x47 + x48
            = 17
 N23:      x49 + x50 + x51 + x52 + x53 + x54 + x55 + x56 + x57 + x58 + x59
           + x60  = 19
 N24:      x61 + x62 + x63 + x64 + x65 + x66 + x67 + x68 + x69 + x70 + x71
           + x72  = 25
 N25:      x73 + x74 + x75 + x76 + x77 + x78 + x79 + x80 + x81 + x82
            = 19.2910034933657
 N26:      x83 + x84 + x85 + x86 + x87 + x88 + x89 + x90 + x91
            = 22.9999875350977
 N27:      x92 + x93 + x94 + x95 + x96 + x97 + x98 + x99 + x100 + x101 + x102
            = 23.993273830875
 N28:      x103 + x104 + x105 + x106 + x107 + x108 + x109 + x110 + x111 + x112
           + x113  = 20
 N29:      x114 + x115 + x116 + x117 + x118 + x119 + x120 + x121 + x122 + x123
            = 20
 N30:      x124 + x125 + x126 + x127 + x128 + x129 + x130 + x131 + x132 + x133
            = 8
 N31:      x134 + x135 + x136 + x137 + x138 + x139 + x140 + x141 + x142 + x143
           + x144 + x145  = 13
 N32:      x146 + x147 + x148 + x149 + x150 + x151 + x152 + x153 + x154 + x155
            = 5
 N33:      x156 + x157 + x158 + x159 + x160 + x161 + x162 + x163 + x164
            = 19.8544404564297
 N34:      x165 + x166 + x167 + x168 + x169 + x170 + x171 + x172 + x173
            = 26.2692832804475
 N35:      x174 + x175 + x176 + x177 + x178 + x179 + x180 + x181 + x182 + x183
            = 27
 N36:      x184 + x185 + x186 + x187 + x188 + x189 + x190 + x191 + x192 + x193
           + x194  = 26
 N37:      x195 + x196 + x197 + x198 + x199 + x200 + x201 + x202 + x203
            = 32.5920114037843
 N39:      x0 + x19 + x40 + x51 + x64 + x69 + x106 + x126 + x132 + x133 + x153
           + x162 + x187 - y0 - y1 - y2 - y3 - y4 - y5 - y6 - y7 - y8 - y9
           - y10  = 0
 N40:      x1 + x26 + x28 + x45 + x60 + x71 + x89 + x100 + x111 + x136 + x163
           + x171 - y11 - y12 - y13 - y14 - y15 - y16 - y17 - y18 - y19  = 0
 N41:      x2 + x39 + x102 + x117 + x129 + x137 + x140 + x143 + x152 + x161
           + x194 - y20 - y21 - y22 - y23 - y24 - y25 - y26 - y27 - y28 - y29
            = 0
 N42:      x3 + x33 + x35 + x50 + x76 + x105 + x120 + x180 + x181 + x189 + x198
           + x199 + x202 - y30 - y31 - y32 - y33 - y34 - y35 - y36 - y37 - y38
           - y39 - y40  = 0
 N43:      x4 + x31 + x62 + x128 - y41 - y42 - y43 - y44 - y45 - y46 - y47
           - y48 - y49 - y50  = 0
 N44:      x5 + x70 + x74 + x119 + x121 + x150 - y51 - y52 - y53 - y54 - y55
           - y56 - y57 - y58 - y59 - y60 - y61  = 0
 N45:      x6 + x21 + x34 + x77 + x84 + x107 + x110 + x112 + x127 + x182 - y62
           - y63 - y64 - y65 - y66 - y67 - y68 - y69 - y70  = 0
 N46:      x7 + x30 + x41 + x65 + x68 + x93 + x109 + x139 + x164 + x168 + x176
           + x192 + x197 - y71 - y72 - y73 - y74 - y75 - y76 - y77 - y78 - y79
           - y80 - y81  = 0
 N47:      x8 + x22 + x23 + x29 + x36 + x37 + x43 + x46 + x54 + x78 + x87 + x91
           + x104 + x123 + x169 + x173 + x183 + x201 - y82 - y83 - y84 - y85
           - y86 - y87 - y88 - y89 - y90 - y91  = 0
 N48:      x9 + x44 + x47 + x63 + x115 + x130 + x155 + x179 + x186 + x191
           + x200 - y92 - y93 - y94 - y95 - y96 - y97 - y98 - y99 - y100  = 0
 N49:      x10 + x25 + x66 + x79 + x125 + x142 + x144 + x178 - y101 - y102
           - y103 - y104 - y105 - y106 - y107 - y108 - y109 - y110 - y111
           - y112  = 0
 N50:      x11 + x48 + x59 + x67 + x90 + x94 + x98 + x131 + x135 + x148 + x149
           + x154 - y113 - y114 - y115 - y116 - y117 - y118 - y119 - y120
           - y121  = 0
 N51:      x12 + x147 - y122 - y123 - y124 - y125 - y126 - y127 - y128 - y129
           - y130 - y131 - y132  = 0
 N52:      x13 + x42 + x75 + x81 + x82 + x101 + x157 + x190 + x203 - y133
           - y134 - y135 - y136 - y137 - y138 - y139 - y140 - y141  = 0
 N53:      x14 + x20 + x56 + x88 + x97 + x113 + x122 + x166 - y142 - y143
           - y144 - y145 - y146 - y147 - y148 - y149 - y150 - y151 - y152  = 0
 N54:      x15 + x32 + x53 + x85 + x95 + x99 + x108 + x116 + x118 + x138 + x145
           + x151 + x167 + x172 + x175 + x193 - y153 - y154 - y155 - y156
           - y157 - y158 - y159 - y160 - y161  = 0
 N55:      x16 + x52 + x55 + x57 + x58 + x72 + x80 + x86 + x158 + x159 + x170
           + x185 - y162 - y163 - y164 - y165 - y166 - y167 - y168 - y169
           - y170 - y171  = 0
 N56:      x17 + x24 + x96 + x141 + x160 + x177 + x188 + x196 - y172 - y173
           - y174 - y175 - y176 - y177 - y178 - y179 - y180 - y181 - y182
           - y183  = 0
 Y1_1_0:   y0 <= 8
 Y1_1_1:   y1 <= 9
 Y1_1_2:   y2 <= 6
 Y1_1_3:   y3 <= 9
 Y1_1_4:   y4 <= 7
 Y1_1_5:   y5 <= 8
 Y1_1_6:   y6 <= 6
 Y1_1_7:   y7 <= 6
 Y1_1_8:   y8 <= 6
 Y1_1_9:   y9 <= 9
 Y1_1_10:  y10 <= 1000
 Y1_2_0:   y11 <= 8
 Y1_2_1:   y12 <= 5
 Y1_2_2:   y13 <= 9
 Y1_2_3:   y14 <= 6
 Y1_2_4:   y15 <= 7
 Y1_2_5:   y16 <= 7
 Y1_2_6:   y17 <= 9
 Y1_2_7:   y18 <= 9
 Y1_2_8:   y19 <= 1000
 Y1_3_0:   y20 <= 9
 Y1_3_1:   y21 <= 8
 Y1_3_2:   y22 <= 5
 Y1_3_3:   y23 <= 5
 Y1_3_4:   y24 <= 7
 Y1_3_5:   y25 <= 7
 Y1_3_6:   y26 <= 6
 Y1_3_7:   y27 <= 6
 Y1_3_8:   y28 <= 6
 Y1_3_9:   y29 <= 1000
 Y1_4_0:   y30 <= 9
 Y1_4_1:   y31 <= 7
 Y1_4_2:   y32 <= 7
 Y1_4_3:   y33 <= 7
 Y1_4_4:   y34 <= 8
 Y1_4_5:   y35 <= 6
 Y1_4_6:   y36 <= 9
 Y1_4_7:   y37 <= 9
 Y1_4_8:   y38 <= 8
 Y1_4_9:   y39 <= 10
 Y1_4_10:  y40 <= 1000
 Y1_5_0:   y41 <= 8
 Y1_5_1:   y42 <= 7
 Y1_5_2:   y43 <= 6
 Y1_5_3:   y44 <= 9
 Y1_5_4:   y45 <= 8
 Y1_5_5:   y46 <= 7
 Y1_5_6:   y47 <= 6
 Y1_5_7:   y48 <= 9
 Y1_5_8:   y49 <= 5
 Y1_5_9:   y50 <= 1000
 Y1_6_0:   y51 <= 5
 Y1_6_1:   y52 <= 7
 Y1_6_2:   y53 <= 9
 Y1_6_3:   y54 <= 6
 Y1_6_4:   y55 <= 9
 Y1_6_5:   y56 <= 7
 Y1_6_6:   y57 <= 5
 Y1_6_7:   y58 <= 8
 Y1_6_8:   y59 <= 5
 Y1_6_9:   y60 <= 6
 Y1_6_10:  y61 <= 1000
 Y1_7_0:   y62 <= 8
 Y1_7_1:   y63 <= 5
 Y1_7_2:   y64 <= 9
 Y1_7_3:   y65 <= 5
 Y1_7_4:   y66 <= 5
 Y1_7_5:   y67 <= 7
 Y1_7_6:   y68 <= 7
 Y1_7_7:   y69 <= 5
 Y1_7_8:   y70 <= 1000
 Y1_8_0:   y71 <= 5
 Y1_8_1:   y72 <= 9
 Y1_8_2:   y73 <= 7
 Y1_8_3:   y74 <= 5
 Y1_8_4:   y75 <= 5
 Y1_8_5:   y76 <= 7
 Y1_8_6:   y77 <= 7
 Y1_8_7:   y78 <= 7
 Y1_8_8:   y79 <= 8
 Y1_8_9:   y80 <= 6
 Y1_8_10:  y81 <= 1000
 Y1_9_0:   y82 <= 6
 Y1_9_1:   y83 <= 7
 Y1_9_2:   y84 <= 9
 Y1_9_3:   y85 <= 6
 Y1_9_4:   y86 <= 9
 Y1_9_5:   y87 <= 6
 Y1_9_6:   y88 <= 6
 Y1_9_7:   y89 <= 7
 Y1_9_8:   y90 <= 5
 Y1_9_9:   y91 <= 1000
 Y1_10_0:  y92 <= 9
 Y1_10_1:  y93 <= 7
 Y1_10_2:  y94 <= 9
 Y1_10_3:  y95 <= 5
 Y1_10_4:  y96 <= 9
 Y1_10_5:  y97 <= 13
 Y1_10_6:  y98 <= 8
 Y1_10_7:  y99 <= 6
 Y1_10_8:  y100 <= 1000
 Y1_11_0:  y101 <= 7
 Y1_11_1:  y102 <= 8
 Y1_11_2:  y103 <= 8
 Y1_11_3:  y104 <= 7
 Y1_11_4:  y105 <= 5
 Y1_11_5:  y106 <= 7
 Y1_11_6:  y107 <= 7
 Y1_11_7:  y108 <= 6
 Y1_11_8:  y109 <= 9
 Y1_11_9:  y110 <= 7
 Y1_11_10: y111 <= 8
 Y1_11_11: y112 <= 1000
 Y1_12_0:  y113 <= 5
 Y1_12_1:  y114 <= 7
 Y1_12_2:  y115 <= 7
 Y1_12_3:  y116 <= 7
 Y1_12_4:  y117 <= 5
 Y1_12_5:  y118 <= 9
 Y1_12_6:  y119 <= 6
 Y1_12_7:  y120 <= 14
 Y1_12_8:  y121 <= 1000
 Y1_13_0:  y122 <= 8
 Y1_13_1:  y123 <= 5
 Y1_13_2:  y124 <= 9
 Y1_13_3:  y125 <= 8
 Y1_13_4:  y126 <= 6
 Y1_13_5:  y127 <= 7
 Y1_13_6:  y128 <= 7
 Y1_13_7:  y129 <= 9
 Y1_13_8:  y130 <= 7
 Y1_13_9:  y131 <= 9
 Y1_13_10: y132 <= 1000
 Y1_14_0:  y133 <= 9
 Y1_14_1:  y134 <= 7
 Y1_14_2:  y135 <= 8
 Y1_14_3:  y136 <= 9
 Y1_14_4:  y137 <= 5
 Y1_14_5:  y138 <= 7
 Y1_14_6:  y139 <= 8
 Y1_14_7:  y140 <= 9
 Y1_14_8:  y141 <= 1000
 Y1_15_0:  y142 <= 6
 Y1_15_1:  y143 <= 8
 Y1_15_2:  y144 <= 5
 Y1_15_3:  y145 <= 7
 Y1_15_4:  y146 <= 7
 Y1_15_5:  y147 <= 7
 Y1_15_6:  y148 <= 6
 Y1_15_7:  y149 <= 5
 Y1_15_8:  y150 <= 5
 Y1_15_9:  y151 <= 6
 Y1_15_10: y152 <= 1000
 Y1_16_0:  y153 <= 9
 Y1_16_1:  y154 <= 9
 Y1_16_2:  y155 <= 9
 Y1_16_3:  y156 <= 9
 Y1_16_4:  y157 <= 9
 Y1_16_5:  y158 <= 6
 Y1_16_6:  y159 <= 6
 Y1_16_7:  y160 <= 7
 Y1_16_8:  y161 <= 1000
 Y1_17_0:  y162 <= 8
 Y1_17_1:  y163 <= 8
 Y1_17_2:  y164 <= 5
 Y1_17_3:  y165 <= 5
 Y1_17_4:  y166 <= 6
 Y1_17_5:  y167 <= 7
 Y1_17_6:  y168 <= 5
 Y1_17_7:  y169 <= 5
 Y1_17_8:  y170 <= 6
 Y1_17_9:  y171 <= 1000
 Y1_18_0:  y172 <= 8
 Y1_18_1:  y173 <= 5
 Y1_18_2:  y174 <= 9
 Y1_18_3:  y175 <= 5
 Y1_18_4:  y176 <= 7
 Y1_18_5:  y177 <= 8
 Y1_18_6:  y178 <= 6
 Y1_18_7:  y179 <= 9
 Y1_18_8:  y180 <= 8
 Y1_18_9:  y181 <= 9
 Y1_18_10: y182 <= 5
 Y1_18_11: y183 <= 1000
Bounds
 0 <= x0 <= 1000
 0 <= x1 <= 1000
 0 <= x2 <= 1000
 0 <= x3 <= 1000
 0 <= x4 <= 1000
 0 <= x5 <= 1000
 0 <= x6 <= 1000
 0 <= x7 <= 1000
 0 <= x8 <= 1000
 0 <= x9 <= 1000
 0 <= x10 <= 1000
 0 <= x11 <= 1000
 0 <= x12 <= 1000
 0 <= x13 <= 1000
 0 <= x14 <= 1000
 0 <= x15 <= 1000
 0 <= x16 <= 1000
 0 <= x17 <= 1000
 0 <= x18 <= 1000
 0 <= x19 <= 5
 0 <= x20 <= 7
 0 <= x21 <= 5
 0 <= x22 <= 5
 0 <= x23 <= 8
 0 <= x24 <= 8
 0 <= x25 <= 6
 0 <= x26 <= 5
 0 <= x27 <= 1000
 0 <= x28 <= 5
 0 <= x29 <= 6
 0 <= x30 <= 9
 0 <= x31 <= 8
 0 <= x32 <= 6
 0 <= x33 <= 9
 0 <= x34 <= 5
 0 <= x35 <= 8
 0 <= x36 <= 8
 0 <= x37 <= 6
 0 <= x38 <= 1000
 0 <= x39 <= 9
 0 <= x40 <= 8
 0 <= x41 <= 9
 0 <= x42 <= 8
 0 <= x43 <= 6
 0 <= x44 <= 7
 0 <= x45 <= 6
 0 <= x46 <= 5
 0 <= x47 <= 5
 0 <= x48 <= 8
 0 <= x49 <= 1000
 0 <= x50 <= 9
 0 <= x51 <= 5
 0 <= x52 <= 5
 0 <= x53 <= 6
 0 <= x54 <= 9
 0 <= x55 <= 9
 0 <= x56 <= 9
 0 <= x57 <= 6
 0 <= x58 <= 5
 0 <= x59 <= 9
 0 <= x60 <= 6
 0 <= x61 <= 1000
 0 <= x62 <= 6
 0 <= x63 <= 7
 0 <= x64 <= 6
 0 <= x65 <= 6
 0 <= x66 <= 7
 0 <= x67 <= 8
 0 <= x68 <= 8
 0 <= x69 <= 9
 0 <= x70 <= 6
 0 <= x71 <= 6
 0 <= x72 <= 8
 0 <= x73 <= 1000
 0 <= x74 <= 8
 0 <= x75 <= 6
 0 <= x76 <= 5
 0 <= x77 <= 5
 0 <= x78 <= 8
 0 <= x79 <= 7
 0 <= x80 <= 6
 0 <= x81 <= 5
 0 <= x82 <= 9
 0 <= x83 <= 1000
 0 <= x84 <= 5
 0 <= x85 <= 6
 0 <= x86 <= 8
 0 <= x87 <= 9
 0 <= x88 <= 9
 0 <= x89 <= 5
 0 <= x90 <= 7
 0 <= x91 <= 5
 0 <= x92 <= 1000
 0 <= x93 <= 6
 0 <= x94 <= 8
 0 <= x95 <= 7
 0 <= x96 <= 5
 0 <= x97 <= 8
 0 <= x98 <= 6
 0 <= x99 <= 8
 0 <= x100 <= 9
 0 <= x101 <= 5
 0 <= x102 <= 5
 0 <= x103 <= 1000
 0 <= x104 <= 6
 0 <= x105 <= 9
 0 <= x106 <= 6
 0 <= x107 <= 9
 0 <= x108 <= 5
 0 <= x109 <= 7
 0 <= x110 <= 8
 0 <= x111 <= 6
 0 <= x112 <= 8
 0 <= x113 <= 7
 0 <= x114 <= 1000
 0 <= x115 <= 6
 0 <= x116 <= 9
 0 <= x117 <= 5
 0 <= x118 <= 6
 0 <= x119 <= 7
 0 <= x120 <= 8
 0 <= x121 <= 9
 0 <= x122 <= 6
 0 <= x123 <= 8
 0 <= x124 <= 1000
 0 <= x125 <= 7
 0 <= x126 <= 6
 0 <= x127 <= 5
 0 <= x128 <= 8
 0 <= x129 <= 9
 0 <= x130 <= 6
 0 <= x131 <= 5
 0 <= x132 <= 6
 0 <= x133 <= 8
 0 <= x134 <= 1000
 0 <= x135 <= 9
 0 <= x136 <= 8
 0 <= x137 <= 5
 0 <= x138 <= 6
 0 <= x139 <= 9
 0 <= x140 <= 6
 0 <= x141 <= 9
 0 <= x142 <= 6
 0 <= x143 <= 8
 0 <= x144 <= 7
 0 <= x145 <= 5
 0 <= x146 <= 1000
 0 <= x147 <= 7
 0 <= x148 <= 9
 0 <= x149 <= 5
 0 <= x150 <= 9
 0 <= x151 <= 8
 0 <= x152 <= 5
 0 <= x153 <= 7
 0 <= x154 <= 9
 0 <= x155 <= 6
 0 <= x156 <= 1000
 0 <= x157 <= 6
 0 <= x158 <= 8
 0 <= x159 <= 5
 0 <= x160 <= 9
 0 <= x161 <= 6
 0 <= x162 <= 8
 0 <= x163 <= 9
 0 <= x164 <= 5
 0 <= x165 <= 1000
 0 <= x166 <= 8
 0 <= x167 <= 9
 0 <= x168 <= 5
 0 <= x169 <= 6
 0 <= x170 <= 6
 0 <= x171 <= 9
 0 <= x172 <= 8
 0 <= x173 <= 5
 0 <= x174 <= 1000
 0 <= x175 <= 7
 0 <= x176 <= 8
 0 <= x177 <= 7
 0 <= x178 <= 7
 0 <= x179 <= 8
 0 <= x180 <= 5
 0 <= x181 <= 7
 0 <= x182 <= 5
 0 <= x183 <= 6
 0 <= x184 <= 1000
 0 <= x185 <= 6
 0 <= x186 <= 6
 0 <= x187 <= 7
 0 <= x188 <= 9
 0 <= x189 <= 6
 0 <= x190 <= 9
 0 <= x191 <= 5
 0 <= x192 <= 9
 0 <= x193 <= 6
 0 <= x194 <= 9
 0 <= x195 <= 1000
 0 <= x196 <= 7
 0 <= x197 <= 7
 0 <= x198 <= 9
 0 <= x199 <= 9
 0 <= x200 <= 9
 0 <= x201 <= 7
 0 <= x202 <= 5
 0 <= x203 <= 5
 0 <= y0 <= 1001
 0 <= y1 <= 1001
 0 <= y2 <= 1001
 0 <= y3 <= 1001
 0 <= y4 <= 1001
 0 <= y5 <= 1001
 0 <= y6 <= 1001
 0 <= y7 <= 1001
 0 <= y8 <= 1001
 0 <= y9 <= 1001
 0 <= y10 <= 1001
 0 <= y11 <= 1001
 0 <= y12 <= 1001
 0 <= y13 <= 1001
 0 <= y14 <= 1001
 0 <= y15 <= 1001
 0 <= y16 <= 1001
 0 <= y17 <= 1001
 0 <= y18 <= 1001
 0 <= y19 <= 1001
 0 <= y20 <= 1001
 0 <= y21 <= 1001
 0 <= y22 <= 1001
 0 <= y23 <= 1001
 0 <= y24 <= 1001
 0 <= y25 <= 1001
 0 <= y26 <= 1001
 0 <= y27 <= 1001
 0 <= y28 <= 1001
 0 <= y29 <= 1001
 0 <= y30 <= 1001
 0 <= y31 <= 1001
 0 <= y32 <= 1001
 0 <= y33 <= 1001
 0 <= y34 <= 1001
 0 <= y35 <= 1001
 0 <= y36 <= 1001
 0 <= y37 <= 1001
 0 <= y38 <= 1001
 0 <= y39 <= 1001
 0 <= y40 <= 1001
 0 <= y41 <= 1001
 0 <= y42 <= 1001
 0 <= y43 <= 1001
 0 <= y44 <= 1001
 0 <= y45 <= 1001
 0 <= y46 <= 1001
 0 <= y47 <= 1001
 0 <= y48 <= 1001
 0 <= y49 <= 1001
 0 <= y50 <= 1001
 0 <= y51 <= 1001
 0 <= y52 <= 1001
 0 <= y53 <= 1001
 0 <= y54 <= 1001
 0 <= y55 <= 1001
 0 <= y56 <= 1001
 0 <= y57 <= 1001
 0 <= y58 <= 1001
 0 <= y59 <= 1001
 0 <= y60 <= 1001
 0 <= y61 <= 1001
 0 <= y62 <= 1001
 0 <= y63 <= 1001
 0 <= y64 <= 1001
 0 <= y65 <= 1001
 0 <= y66 <= 1001
 0 <= y67 <= 1001
 0 <= y68 <= 1001
 0 <= y69 <= 1001
 0 <= y70 <= 1001
 0 <= y71 <= 1001
 0 <= y72 <= 1001
 0 <= y73 <= 1001
 0 <= y74 <= 1001
 0 <= y75 <= 1001
 0 <= y76 <= 1001
 0 <= y77 <= 1001
 0 <= y78 <= 1001
 0 <= y79 <= 1001
 0 <= y80 <= 1001
 0 <= y81 <= 1001
 0 <= y82 <= 1001
 0 <= y83 <= 1001
 0 <= y84 <= 1001
 0 <= y85 <= 1001
 0 <= y86 <= 1001
 0 <= y87 <= 1001
 0 <= y88 <= 1001
 0 <= y89 <= 1001
 0 <= y90 <= 1001
 0 <= y91 <= 1001
 0 <= y92 <= 1001
 0 <= y93 <= 1001
 0 <= y94 <= 1001
 0 <= y95 <= 1001
 0 <= y96 <= 1001
 0 <= y97 <= 1001
 0 <= y98 <= 1001
 0 <= y99 <= 1001
 0 <= y100 <= 1001
 0 <= y101 <= 1001
 0 <= y102 <= 1001
 0 <= y103 <= 1001
 0 <= y104 <= 1001
 0 <= y105 <= 1001
 0 <= y106 <= 1001
 0 <= y107 <= 1001
 0 <= y108 <= 1001
 0 <= y109 <= 1001
 0 <= y110 <= 1001
 0 <= y111 <= 1001
 0 <= y112 <= 1001
 0 <= y113 <= 1001
 0 <= y114 <= 1001
 0 <= y115 <= 1001
 0 <= y116 <= 1001
 0 <= y117 <= 1001
 0 <= y118 <= 1001
 0 <= y119 <= 1001
 0 <= y120 <= 1001
 0 <= y121 <= 1001
 0 <= y122 <= 1001
 0 <= y123 <= 1001
 0 <= y124 <= 1001
 0 <= y125 <= 1001
 0 <= y126 <= 1001
 0 <= y127 <= 1001
 0 <= y128 <= 1001
 0 <= y129 <= 1001
 0 <= y130 <= 1001
 0 <= y131 <= 1001
 0 <= y132 <= 1001
 0 <= y133 <= 1001
 0 <= y134 <= 1001
 0 <= y135 <= 1001
 0 <= y136 <= 1001
 0 <= y137 <= 1001
 0 <= y138 <= 1001
 0 <= y139 <= 1001
 0 <= y140 <= 1001
 0 <= y141 <= 1001
 0 <= y142 <= 1001
 0 <= y143 <= 1001
 0 <= y144 <= 1001
 0 <= y145 <= 1001
 0 <= y146 <= 1001
 0 <= y147 <= 1001
 0 <= y148 <= 1001
 0 <= y149 <= 1001
 0 <= y150 <= 1001
 0 <= y151 <= 1001
 0 <= y152 <= 1001
 0 <= y153 <= 1001
 0 <= y154 <= 1001
 0 <= y155 <= 1001
 0 <= y156 <= 1001
 0 <= y157 <= 1001
 0 <= y158 <= 1001
 0 <= y159 <= 1001
 0 <= y160 <= 1001
 0 <= y161 <= 1001
 0 <= y162 <= 1001
 0 <= y163 <= 1001
 0 <= y164 <= 1001
 0 <= y165 <= 1001
 0 <= y166 <= 1001
 0 <= y167 <= 1001
 0 <= y168 <= 1001
 0 <= y169 <= 1001
 0 <= y170 <= 1001
 0 <= y171 <= 1001
 0 <= y172 <= 1001
 0 <= y173 <= 1001
 0 <= y174 <= 1001
 0 <= y175 <= 1001
 0 <= y176 <= 1001
 0 <= y177 <= 1001
 0 <= y178 <= 1001
 0 <= y179 <= 1001
 0 <= y180 <= 1001
 0 <= y181 <= 1001
 0 <= y182 <= 1001
 0 <= y183 <= 1001
End
